SECTION GRAPH
NODES 5
EDGES 5
E 1 2 3
E 2 3 1
E 3 4 4
E 4 5 1
E 5 1 2
END 

SECTION Terminals
Terminals 2
T 1
T 4
END

SECTION Tree Decomposition
s td 4 3 5
b 3 1 2
b 2 1 2 3
b 1 1 3 4
b 4 1 4 5
3 2
2 1
4 1
END
EOF 

Answer: 3